c This is a random SAT instance with 10 variables and 20 clauses
p cnf 10 20
10 1 -6 7 5 -2 -3 6 -4 0
-10 -6 10 4 2 -8 1 -4 -1 0
5 9 4 8 6 -8 -7 -9 0
7 -10 -1 2 5 1 8 -3 0
6 -1 -6 1 0
-4 0
-2 -3 -5 9 -1 0
-4 0
-9 10 -2 1 -10 3 0
-1 -9 -3 7 -10 -2 8 6 -6 0
1 -3 3 -2 -5 -10 8 -8 -1 0
-2 5 8 10 -10 -6 -9 0
-7 6 8 10 -4 -3 2 9 0
2 1 8 -3 10 3 0
7 -7 1 -9 -8 -4 -3 0
10 7 -9 -5 0
7 0
4 0
2 7 9 -6 1 -4 0
9 -8 0